NAME          COPTPROB
OBJSENSE
  MIN
ROWS
 N  __OBJ___
 L  C2      
 L  C3      
 L  C6      
 L  C7      
 L  C11     
 L  C12     
 L  C14     
 L  C16     
 L  C18     
 L  C19     
 L  C21     
 L  C22     
 L  C24     
 L  C25     
 L  C27     
 L  C28     
 L  C31     
 L  C32     
 L  C34     
 L  C35     
 L  C38     
 L  C39     
 L  C40     
 L  C42     
 L  C46     
 L  C47     
 L  C48     
 L  C49     
 L  C50     
 L  C51     
 L  C52     
 L  C53     
 L  C55     
 L  C61     
 L  C64     
 L  C65     
 L  C70     
 L  C71     
 L  C73     
 L  C78     
 L  C80     
 L  C81     
 L  C82     
 L  C84     
 L  C86     
 L  C91     
 L  C96     
 L  C99     
 L  C102    
 L  C105    
 L  C110    
 L  C112    
 L  C120    
 L  C122    
 L  C125    
 L  C126    
 L  C127    
 L  C130    
 L  C131    
 L  C132    
 L  C133    
 L  C135    
 L  C137    
 L  C141    
 L  C142    
 L  C145    
 L  C146    
 L  C156    
 L  C157    
 L  C160    
 L  C164    
 L  C169    
 L  C170    
 L  C171    
 L  C172    
 L  C174    
 L  C175    
 L  C177    
 L  C178    
 L  C180    
 L  C181    
 L  C184    
 L  C185    
 L  C187    
 L  C189    
 L  C190    
 L  C191    
 L  C193    
 L  C196    
 L  C199    
 L  C200    
 L  C201    
 L  C203    
 L  C204    
 L  C205    
 L  C206    
 L  C208    
 L  C213    
 L  C216    
 L  C220    
 L  C222    
 L  C223    
 L  C224    
 L  C225    
 L  C226    
 L  C230    
 L  C232    
 L  C234    
 L  C237    
 L  C241    
 L  C242    
 L  C244    
 L  C246    
 L  C249    
 L  C253    
 L  C254    
 L  C255    
 L  C257    
 L  C258    
 L  C259    
 L  C260    
 L  C262    
 L  C265    
 L  C266    
 L  C267    
 L  C268    
 L  C269    
 L  C271    
 L  C272    
 L  C274    
 L  C275    
 L  C276    
 L  C279    
 L  C281    
 L  C284    
 L  C285    
 L  C286    
 L  C288    
 L  C289    
 L  C291    
 L  C292    
 L  C293    
 L  C300    
 L  C304    
 L  C305    
 L  C307    
 L  C311    
 L  C312    
 L  C314    
 L  C316    
 L  C317    
 L  C320    
 L  C321    
 L  C327    
 L  C330    
 L  C334    
 L  C337    
 L  C339    
 L  C340    
 L  C341    
 L  C344    
 L  C348    
 L  C349    
 L  C351    
 L  C352    
 L  C353    
 L  C354    
 L  C355    
 L  C359    
 L  C360    
 L  C363    
 L  C364    
 L  C365    
 L  C366    
 L  C367    
 L  C370    
 L  C372    
 L  C373    
 L  C374    
 L  C380    
 L  C381    
 L  C385    
 L  C386    
 L  C387    
 L  C388    
 L  C389    
 L  C390    
 L  C392    
 L  C393    
 L  C397    
 L  C399    
 L  C400    
 L  C406    
 L  C408    
 L  C416    
 L  C417    
 L  C418    
 L  C419    
 L  C420    
 L  C421    
 L  C422    
 L  C423    
 L  C427    
 L  C429    
 L  C432    
 L  C433    
 L  C434    
 L  C436    
 L  C438    
 L  C439    
 L  C440    
 L  C441    
 L  C445    
 L  C446    
 L  C448    
 L  C449    
 L  C450    
 L  C452    
 L  C454    
 L  C463    
 L  C470    
 L  C473    
 L  C474    
 L  C476    
 L  C479    
 L  C480    
 L  C481    
 L  C482    
 L  C484    
 L  C491    
 L  C492    
 L  C495    
 L  C497    
 L  C500    
 L  C502    
 L  C506    
 L  C507    
 L  C510    
 L  C511    
 L  C514    
 L  C515    
 L  C516    
 L  C522    
 L  C525    
 L  C526    
 L  C527    
 L  C529    
 L  C531    
 L  C532    
 L  C533    
 L  C539    
 L  C540    
 L  C544    
 L  C549    
 L  C552    
 L  C554    
 L  C560    
 L  C562    
 L  C563    
COLUMNS
    MARKER    'MARKER'                 'INTORG'
    x2        __OBJ___  -1
    x2        C226      1
    x2        C262      1
    x2        C433      1
    x4        __OBJ___  -1
    x4        C19       1
    x4        C42       1
    x4        C64       1
    x4        C102      1
    x4        C177      1
    x4        C330      1
    x4        C408      1
    x5        __OBJ___  -1
    x5        C6        1
    x5        C11       1
    x5        C16       1
    x5        C32       1
    x5        C51       1
    x5        C81       1
    x5        C91       1
    x5        C102      1
    x5        C126      1
    x5        C137      1
    x5        C226      1
    x5        C232      1
    x5        C258      1
    x5        C266      1
    x5        C281      1
    x5        C286      1
    x5        C317      1
    x5        C349      1
    x5        C393      1
    x5        C397      1
    x5        C454      1
    x5        C479      1
    x5        C497      1
    x5        C549      1
    x5        C554      1
    x10       __OBJ___  -1
    x10       C18       1
    x10       C71       1
    x10       C171      1
    x10       C191      1
    x10       C200      1
    x10       C205      1
    x10       C216      1
    x10       C224      1
    x10       C258      1
    x10       C281      1
    x10       C284      1
    x10       C364      1
    x10       C372      1
    x10       C373      1
    x10       C399      1
    x10       C423      1
    x10       C525      1
    x10       C540      1
    x12       __OBJ___  -1
    x12       C24       1
    x12       C39       1
    x12       C105      1
    x12       C205      1
    x12       C216      1
    x12       C224      1
    x12       C289      1
    x12       C305      1
    x12       C359      1
    x12       C390      1
    x12       C480      1
    x12       C482      1
    x12       C531      1
    x12       C552      1
    x13       __OBJ___  -1
    x13       C2        1
    x13       C18       1
    x13       C40       1
    x13       C156      1
    x13       C257      1
    x13       C353      1
    x13       C372      1
    x13       C392      1
    x13       C427      1
    x13       C432      1
    x13       C463      1
    x13       C514      1
    x13       C525      1
    x13       C544      1
    x16       __OBJ___  -1
    x16       C7        1
    x16       C84       1
    x16       C127      1
    x16       C316      1
    x16       C351      1
    x16       C525      1
    x18       __OBJ___  -1
    x18       C25       1
    x18       C51       1
    x18       C174      1
    x18       C244      1
    x18       C254      1
    x18       C260      1
    x18       C275      1
    x18       C286      1
    x18       C522      1
    x18       C554      1
    x19       __OBJ___  -1
    x19       C3        1
    x19       C65       1
    x19       C135      1
    x19       C141      1
    x19       C436      1
    x19       C492      1
    x21       __OBJ___  -1
    x21       C22       1
    x21       C50       1
    x21       C126      1
    x21       C289      1
    x21       C502      1
    x22       __OBJ___  -1
    x22       C46       1
    x22       C131      1
    x22       C269      1
    x22       C281      1
    x22       C374      1
    x23       __OBJ___  -1
    x23       C31       1
    x23       C64       1
    x23       C131      1
    x23       C193      1
    x23       C253      1
    x23       C262      1
    x23       C367      1
    x24       __OBJ___  -1
    x24       C27       1
    x24       C200      1
    x24       C216      1
    x24       C355      1
    x24       C562      1
    x25       __OBJ___  -1
    x25       C21       1
    x25       C279      1
    x25       C400      1
    x25       C463      1
    x25       C531      1
    x25       C533      1
    x26       __OBJ___  -1
    x26       C187      1
    x26       C191      1
    x26       C205      1
    x26       C275      1
    x26       C285      1
    x26       C448      1
    x26       C473      1
    x26       C540      1
    x27       __OBJ___  -1
    x27       C48       1
    x27       C96       1
    x27       C112      1
    x27       C220      1
    x27       C234      1
    x27       C291      1
    x27       C522      1
    x30       __OBJ___  -1
    x30       C135      1
    x30       C232      1
    x30       C293      1
    x31       __OBJ___  -1
    x31       C224      1
    x31       C372      1
    x31       C408      1
    x32       __OBJ___  -1
    x32       C21       1
    x32       C133      1
    x32       C196      1
    x32       C223      1
    x32       C246      1
    x32       C265      1
    x32       C317      1
    x32       C434      1
    x32       C446      1
    x34       __OBJ___  -1
    x34       C130      1
    x34       C225      1
    x34       C392      1
    x34       C440      1
    x34       C497      1
    x35       __OBJ___  -1
    x35       C171      1
    x35       C174      1
    x36       __OBJ___  -1
    x36       C181      1
    x36       C241      1
    x36       C279      1
    x36       C436      1
    x36       C476      1
    x37       __OBJ___  -1
    x37       C6        1
    x37       C316      1
    x38       __OBJ___  -1
    x38       C6        1
    x38       C47       1
    x38       C291      1
    x38       C327      1
    x38       C397      1
    x38       C454      1
    x38       C532      1
    x39       __OBJ___  -1
    x39       C34       1
    x39       C73       1
    x39       C91       1
    x39       C157      1
    x39       C201      1
    x39       C241      1
    x39       C255      1
    x39       C360      1
    x39       C386      1
    x39       C390      1
    x39       C418      1
    x40       __OBJ___  -1
    x40       C35       1
    x40       C132      1
    x40       C397      1
    x40       C476      1
    x42       __OBJ___  -1
    x42       C39       1
    x42       C65       1
    x42       C146      1
    x42       C175      1
    x43       __OBJ___  -1
    x43       C31       1
    x43       C51       1
    x43       C78       1
    x43       C351      1
    x43       C450      1
    x44       __OBJ___  -1
    x44       C99       1
    x44       C317      1
    x45       __OBJ___  -1
    x45       C482      1
    x45       C491      1
    x46       __OBJ___  -1
    x46       C19       1
    x46       C203      1
    x46       C255      1
    x46       C348      1
    x46       C439      1
    x47       __OBJ___  -1
    x47       C193      1
    x47       C234      1
    x47       C421      1
    x48       __OBJ___  -1
    x48       C50       1
    x48       C185      1
    x48       C244      1
    x48       C269      1
    x48       C526      1
    x50       __OBJ___  -1
    x50       C38       1
    x50       C48       1
    x50       C230      1
    x50       C249      1
    x50       C257      1
    x50       C271      1
    x50       C314      1
    x50       C366      1
    x51       __OBJ___  -1
    x51       C40       1
    x51       C203      1
    x52       __OBJ___  -1
    x52       C253      1
    x52       C363      1
    x52       C416      1
    x52       C439      1
    x53       __OBJ___  -1
    x53       C189      1
    x53       C244      1
    x53       C365      1
    x54       __OBJ___  -1
    x54       C55       1
    x54       C78       1
    x54       C187      1
    x54       C348      1
    x54       C452      1
    x54       C470      1
    x54       C506      1
    x55       __OBJ___  -1
    x55       C91       1
    x55       C208      1
    x56       __OBJ___  -1
    x56       C141      1
    x56       C223      1
    x56       C422      1
    x57       __OBJ___  -1
    x57       C82       1
    x57       C293      1
    x57       C359      1
    x57       C511      1
    x58       __OBJ___  -1
    x58       C55       1
    x58       C125      1
    x58       C130      1
    x58       C201      1
    x58       C381      1
    x59       __OBJ___  -1
    x59       C133      1
    x59       C260      1
    x59       C305      1
    x59       C406      1
    x60       __OBJ___  -1
    x60       C189      1
    x60       C249      1
    x60       C267      1
    x60       C327      1
    x60       C354      1
    x60       C552      1
    x61       __OBJ___  -1
    x61       C27       1
    x61       C285      1
    x61       C380      1
    x61       C434      1
    x62       __OBJ___  -1
    x62       C12       1
    x62       C169      1
    x62       C175      1
    x62       C321      1
    x62       C389      1
    x62       C549      1
    x63       __OBJ___  -1
    x63       C266      1
    x63       C482      1
    x64       __OBJ___  -1
    x64       C196      1
    x64       C292      1
    x64       C340      1
    x64       C388      1
    x64       C511      1
    x65       __OBJ___  -1
    x65       C307      1
    x65       C388      1
    x65       C427      1
    x65       C479      1
    x66       __OBJ___  -1
    x66       C14       1
    x66       C454      1
    x67       __OBJ___  -1
    x67       C11       1
    x67       C125      1
    x67       C164      1
    x67       C222      1
    x67       C274      1
    x67       C510      1
    x67       C514      1
    x69       __OBJ___  -1
    x69       C46       1
    x69       C142      1
    x69       C334      1
    x69       C381      1
    x71       __OBJ___  -1
    x71       C70       1
    x71       C82       1
    x71       C170      1
    x71       C385      1
    x71       C393      1
    x71       C500      1
    x71       C562      1
    x72       __OBJ___  -1
    x72       C38       1
    x72       C164      1
    x72       C185      1
    x73       __OBJ___  -1
    x73       C169      1
    x73       C199      1
    x73       C206      1
    x74       __OBJ___  -1
    x74       C28       1
    x74       C34       1
    x74       C204      1
    x74       C474      1
    x74       C540      1
    x75       __OBJ___  -1
    x75       C80       1
    x75       C86       1
    x75       C172      1
    x75       C474      1
    x75       C484      1
    x76       __OBJ___  -1
    x76       C237      1
    x76       C312      1
    x76       C344      1
    x77       __OBJ___  -1
    x77       C132      1
    x77       C160      1
    x77       C374      1
    x77       C473      1
    x78       __OBJ___  -1
    x78       C242      1
    x78       C266      1
    x78       C355      1
    x78       C449      1
    x78       C549      1
    x79       __OBJ___  -1
    x79       C2        1
    x79       C19       1
    x79       C99       1
    x80       __OBJ___  -1
    x80       C137      1
    x80       C145      1
    x80       C286      1
    x80       C387      1
    x80       C417      1
    x81       __OBJ___  -1
    x81       C178      1
    x81       C484      1
    x82       __OBJ___  -1
    x82       C71       1
    x82       C246      1
    x82       C321      1
    x82       C366      1
    x84       __OBJ___  -1
    x84       C156      1
    x84       C200      1
    x84       C311      1
    x85       __OBJ___  -1
    x85       C7        1
    x85       C14       1
    x85       C190      1
    x85       C491      1
    x86       __OBJ___  -1
    x86       C25       1
    x86       C35       1
    x86       C80       1
    x86       C370      1
    x86       C419      1
    x86       C441      1
    x87       __OBJ___  -1
    x87       C180      1
    x87       C258      1
    x88       __OBJ___  -1
    x88       C122      1
    x88       C516      1
    x88       C544      1
    x88       C560      1
    x89       __OBJ___  -1
    x89       C110      1
    x89       C137      1
    x89       C492      1
    x90       __OBJ___  -1
    x90       C249      1
    x90       C330      1
    x91       __OBJ___  -1
    x91       C53       1
    x91       C127      1
    x91       C177      1
    x92       __OBJ___  -1
    x92       C190      1
    x92       C363      1
    x92       C406      1
    x93       __OBJ___  -1
    x93       C49       1
    x93       C146      1
    x93       C160      1
    x93       C516      1
    x94       __OBJ___  -1
    x94       C73       1
    x94       C267      1
    x94       C334      1
    x95       __OBJ___  -1
    x95       C213      1
    x95       C380      1
    x95       C432      1
    x95       C433      1
    x95       C515      1
    x96       __OBJ___  -1
    x96       C191      1
    x96       C354      1
    x97       __OBJ___  -1
    x97       C61       1
    x97       C96       1
    x97       C145      1
    x97       C352      1
    x97       C539      1
    x98       __OBJ___  -1
    x98       C422      1
    x98       C554      1
    x99       __OBJ___  -1
    x99       C65       1
    x99       C70       1
    x99       C122      1
    x99       C320      1
    x100      __OBJ___  -1
    x100      C52       1
    x100      C237      1
    x100      C314      1
    x100      C337      1
    x100      C339      1
    x101      __OBJ___  -1
    x101      C268      1
    x101      C307      1
    x101      C373      1
    x101      C400      1
    x101      C429      1
    x102      __OBJ___  -1
    x102      C42       1
    x102      C420      1
    x103      __OBJ___  -1
    x103      C284      1
    x103      C339      1
    x103      C385      1
    x104      __OBJ___  -1
    x104      C259      1
    x104      C271      1
    x104      C320      1
    x104      C341      1
    x105      __OBJ___  -1
    x105      C53       1
    x105      C312      1
    x106      __OBJ___  -1
    x106      C81       1
    x106      C213      1
    x106      C311      1
    x107      __OBJ___  -1
    x107      C300      1
    x107      C390      1
    x107      C419      1
    x109      __OBJ___  -1
    x109      C22       1
    x109      C52       1
    x109      C120      1
    x109      C481      1
    x109      C507      1
    x110      __OBJ___  -1
    x110      C49       1
    x110      C225      1
    x110      C539      1
    x112      __OBJ___  -1
    x112      C142      1
    x112      C360      1
    x112      C481      1
    x113      __OBJ___  -1
    x113      C220      1
    x113      C259      1
    x113      C304      1
    x113      C480      1
    x114      __OBJ___  -1
    x114      C28       1
    x114      C196      1
    x115      __OBJ___  -1
    x115      C450      1
    x115      C495      1
    x115      C500      1
    x116      __OBJ___  -1
    x116      C61       1
    x116      C242      1
    x116      C441      1
    x116      C563      1
    x117      __OBJ___  -1
    x117      C172      1
    x117      C340      1
    x118      __OBJ___  -1
    x118      C112      1
    x118      C416      1
    x118      C506      1
    x119      __OBJ___  -1
    x119      C16       1
    x119      C304      1
    x120      __OBJ___  -1
    x120      C417      1
    x120      C515      1
    x121      __OBJ___  -1
    x121      C292      1
    x121      C386      1
    x121      C423      1
    x122      __OBJ___  -1
    x122      C3        1
    x122      C157      1
    x122      C184      1
    x122      C510      1
    x123      __OBJ___  -1
    x123      C47       1
    x123      C344      1
    x124      __OBJ___  -1
    x124      C18       1
    x124      C526      1
    x125      __OBJ___  -1
    x125      C208      1
    x125      C421      1
    x126      __OBJ___  -1
    x126      C24       1
    x126      C170      1
    x126      C272      1
    x126      C353      1
    x127      __OBJ___  -1
    x127      C349      1
    x127      C367      1
    x127      C370      1
    x127      C445      1
    x128      __OBJ___  -1
    x128      C31       1
    x128      C105      1
    x128      C181      1
    x129      __OBJ___  -1
    x129      C84       1
    x129      C268      1
    x129      C337      1
    x129      C420      1
    x130      __OBJ___  -1
    x130      C174      1
    x130      C276      1
    x130      C497      1
    x131      __OBJ___  -1
    x131      C110      1
    x131      C265      1
    x131      C532      1
    x132      __OBJ___  -1
    x132      C274      1
    x132      C445      1
    x133      __OBJ___  -1
    x133      C156      1
    x133      C160      1
    x134      __OBJ___  -1
    x134      C180      1
    x134      C254      1
    x134      C429      1
    x134      C438      1
    x134      C529      1
    x135      __OBJ___  -1
    x135      C276      1
    x135      C300      1
    x135      C448      1
    x136      __OBJ___  -1
    x136      C387      1
    x136      C500      1
    x136      C527      1
    x137      __OBJ___  -1
    x137      C230      1
    x137      C272      1
    x137      C418      1
    x138      __OBJ___  -1
    x138      C495      1
    x138      C533      1
    x139      __OBJ___  -1
    x139      C199      1
    x139      C364      1
    x139      C440      1
    x140      __OBJ___  -1
    x140      C204      1
    x140      C452      1
    x140      C563      1
    x141      __OBJ___  -1
    x141      C178      1
    x141      C288      1
    x141      C352      1
    x141      C389      1
    x143      __OBJ___  -1
    x143      C86       1
    x143      C184      1
    x143      C288      1
    x143      C446      1
    x144      __OBJ___  -1
    x144      C120      1
    x144      C327      1
    x144      C560      1
    x145      __OBJ___  -1
    x145      C206      1
    x145      C449      1
    x146      __OBJ___  -1
    x146      C222      1
    x146      C365      1
    x148      __OBJ___  -1
    x148      C12       1
    x148      C507      1
    x148      C529      1
    x149      __OBJ___  -1
    x149      C32       1
    x149      C341      1
    x149      C470      1
    x150      __OBJ___  -1
    x150      C399      1
    x150      C438      1
    x150      C502      1
    x150      C527      1
    MARKER    'MARKER'                 'INTEND'
RHS
    RHS       __OBJ___  7
    RHS       C2        1
    RHS       C3        1
    RHS       C6        1
    RHS       C7        1
    RHS       C11       1
    RHS       C12       1
    RHS       C14       1
    RHS       C16       1
    RHS       C18       1
    RHS       C19       1
    RHS       C21       1
    RHS       C22       1
    RHS       C24       1
    RHS       C25       1
    RHS       C27       1
    RHS       C28       1
    RHS       C31       1
    RHS       C32       1
    RHS       C34       1
    RHS       C35       1
    RHS       C38       1
    RHS       C39       1
    RHS       C40       1
    RHS       C42       1
    RHS       C46       1
    RHS       C47       1
    RHS       C48       1
    RHS       C49       1
    RHS       C50       1
    RHS       C51       1
    RHS       C52       1
    RHS       C53       1
    RHS       C55       1
    RHS       C61       1
    RHS       C64       1
    RHS       C65       1
    RHS       C70       1
    RHS       C71       1
    RHS       C73       1
    RHS       C78       1
    RHS       C80       1
    RHS       C81       1
    RHS       C82       1
    RHS       C84       1
    RHS       C86       1
    RHS       C91       1
    RHS       C96       1
    RHS       C99       1
    RHS       C102      1
    RHS       C105      1
    RHS       C110      1
    RHS       C112      1
    RHS       C120      1
    RHS       C122      1
    RHS       C125      1
    RHS       C126      1
    RHS       C127      1
    RHS       C130      1
    RHS       C131      1
    RHS       C132      1
    RHS       C133      1
    RHS       C135      1
    RHS       C137      1
    RHS       C141      1
    RHS       C142      1
    RHS       C145      1
    RHS       C146      1
    RHS       C156      1
    RHS       C157      1
    RHS       C160      1
    RHS       C164      1
    RHS       C169      1
    RHS       C170      1
    RHS       C171      1
    RHS       C172      1
    RHS       C174      1
    RHS       C175      1
    RHS       C177      1
    RHS       C178      1
    RHS       C180      1
    RHS       C181      1
    RHS       C184      1
    RHS       C185      1
    RHS       C187      1
    RHS       C189      1
    RHS       C190      1
    RHS       C191      1
    RHS       C193      1
    RHS       C196      1
    RHS       C199      1
    RHS       C200      1
    RHS       C201      1
    RHS       C203      1
    RHS       C204      1
    RHS       C205      1
    RHS       C206      1
    RHS       C208      1
    RHS       C213      1
    RHS       C216      1
    RHS       C220      1
    RHS       C222      1
    RHS       C223      1
    RHS       C224      1
    RHS       C225      1
    RHS       C226      1
    RHS       C230      1
    RHS       C232      1
    RHS       C234      1
    RHS       C237      1
    RHS       C241      1
    RHS       C242      1
    RHS       C244      1
    RHS       C246      1
    RHS       C249      1
    RHS       C253      1
    RHS       C254      1
    RHS       C255      1
    RHS       C257      1
    RHS       C258      1
    RHS       C259      1
    RHS       C260      1
    RHS       C262      1
    RHS       C265      1
    RHS       C266      1
    RHS       C267      1
    RHS       C268      1
    RHS       C269      1
    RHS       C271      1
    RHS       C272      1
    RHS       C274      1
    RHS       C275      1
    RHS       C276      1
    RHS       C279      1
    RHS       C281      1
    RHS       C284      1
    RHS       C285      1
    RHS       C286      1
    RHS       C288      1
    RHS       C289      1
    RHS       C291      1
    RHS       C292      1
    RHS       C293      1
    RHS       C300      1
    RHS       C304      1
    RHS       C305      1
    RHS       C307      1
    RHS       C311      1
    RHS       C312      1
    RHS       C314      1
    RHS       C316      1
    RHS       C317      1
    RHS       C320      1
    RHS       C321      1
    RHS       C327      1
    RHS       C330      1
    RHS       C334      1
    RHS       C337      1
    RHS       C339      1
    RHS       C340      1
    RHS       C341      1
    RHS       C344      1
    RHS       C348      1
    RHS       C349      1
    RHS       C351      1
    RHS       C352      1
    RHS       C353      1
    RHS       C354      1
    RHS       C355      1
    RHS       C359      1
    RHS       C360      1
    RHS       C363      1
    RHS       C364      1
    RHS       C365      1
    RHS       C366      1
    RHS       C367      1
    RHS       C370      1
    RHS       C372      1
    RHS       C373      1
    RHS       C374      1
    RHS       C380      1
    RHS       C381      1
    RHS       C385      1
    RHS       C386      1
    RHS       C387      1
    RHS       C388      1
    RHS       C389      1
    RHS       C390      1
    RHS       C392      1
    RHS       C393      1
    RHS       C397      1
    RHS       C399      1
    RHS       C400      1
    RHS       C406      1
    RHS       C408      1
    RHS       C416      1
    RHS       C417      1
    RHS       C418      1
    RHS       C419      1
    RHS       C420      1
    RHS       C421      1
    RHS       C422      1
    RHS       C423      1
    RHS       C427      1
    RHS       C429      1
    RHS       C432      1
    RHS       C433      1
    RHS       C434      1
    RHS       C436      1
    RHS       C438      1
    RHS       C439      1
    RHS       C440      1
    RHS       C441      1
    RHS       C445      1
    RHS       C446      1
    RHS       C448      1
    RHS       C449      1
    RHS       C450      1
    RHS       C452      1
    RHS       C454      1
    RHS       C463      1
    RHS       C470      1
    RHS       C473      1
    RHS       C474      1
    RHS       C476      1
    RHS       C479      1
    RHS       C480      1
    RHS       C481      1
    RHS       C482      1
    RHS       C484      1
    RHS       C491      1
    RHS       C492      1
    RHS       C495      1
    RHS       C497      1
    RHS       C500      1
    RHS       C502      1
    RHS       C506      1
    RHS       C507      1
    RHS       C510      1
    RHS       C511      1
    RHS       C514      1
    RHS       C515      1
    RHS       C516      1
    RHS       C522      1
    RHS       C525      1
    RHS       C526      1
    RHS       C527      1
    RHS       C529      1
    RHS       C531      1
    RHS       C532      1
    RHS       C533      1
    RHS       C539      1
    RHS       C540      1
    RHS       C544      1
    RHS       C549      1
    RHS       C552      1
    RHS       C554      1
    RHS       C560      1
    RHS       C562      1
    RHS       C563      1
BOUNDS
 UP BOUND     x2        1
 UP BOUND     x4        1
 UP BOUND     x5        1
 UP BOUND     x10       1
 UP BOUND     x12       1
 UP BOUND     x13       1
 UP BOUND     x16       1
 UP BOUND     x18       1
 UP BOUND     x19       1
 UP BOUND     x21       1
 UP BOUND     x22       1
 UP BOUND     x23       1
 UP BOUND     x24       1
 UP BOUND     x25       1
 UP BOUND     x26       1
 UP BOUND     x27       1
 UP BOUND     x30       1
 UP BOUND     x31       1
 UP BOUND     x32       1
 UP BOUND     x34       1
 UP BOUND     x35       1
 UP BOUND     x36       1
 UP BOUND     x37       1
 UP BOUND     x38       1
 UP BOUND     x39       1
 UP BOUND     x40       1
 UP BOUND     x42       1
 UP BOUND     x43       1
 UP BOUND     x44       1
 UP BOUND     x45       1
 UP BOUND     x46       1
 UP BOUND     x47       1
 UP BOUND     x48       1
 UP BOUND     x50       1
 UP BOUND     x51       1
 UP BOUND     x52       1
 UP BOUND     x53       1
 UP BOUND     x54       1
 UP BOUND     x55       1
 UP BOUND     x56       1
 UP BOUND     x57       1
 UP BOUND     x58       1
 UP BOUND     x59       1
 UP BOUND     x60       1
 UP BOUND     x61       1
 UP BOUND     x62       1
 UP BOUND     x63       1
 UP BOUND     x64       1
 UP BOUND     x65       1
 UP BOUND     x66       1
 UP BOUND     x67       1
 UP BOUND     x69       1
 UP BOUND     x71       1
 UP BOUND     x72       1
 UP BOUND     x73       1
 UP BOUND     x74       1
 UP BOUND     x75       1
 UP BOUND     x76       1
 UP BOUND     x77       1
 UP BOUND     x78       1
 UP BOUND     x79       1
 UP BOUND     x80       1
 UP BOUND     x81       1
 UP BOUND     x82       1
 UP BOUND     x84       1
 UP BOUND     x85       1
 UP BOUND     x86       1
 UP BOUND     x87       1
 UP BOUND     x88       1
 UP BOUND     x89       1
 UP BOUND     x90       1
 UP BOUND     x91       1
 UP BOUND     x92       1
 UP BOUND     x93       1
 UP BOUND     x94       1
 UP BOUND     x95       1
 UP BOUND     x96       1
 UP BOUND     x97       1
 UP BOUND     x98       1
 UP BOUND     x99       1
 UP BOUND     x100      1
 UP BOUND     x101      1
 UP BOUND     x102      1
 UP BOUND     x103      1
 UP BOUND     x104      1
 UP BOUND     x105      1
 UP BOUND     x106      1
 UP BOUND     x107      1
 UP BOUND     x109      1
 UP BOUND     x110      1
 UP BOUND     x112      1
 UP BOUND     x113      1
 UP BOUND     x114      1
 UP BOUND     x115      1
 UP BOUND     x116      1
 UP BOUND     x117      1
 UP BOUND     x118      1
 UP BOUND     x119      1
 UP BOUND     x120      1
 UP BOUND     x121      1
 UP BOUND     x122      1
 UP BOUND     x123      1
 UP BOUND     x124      1
 UP BOUND     x125      1
 UP BOUND     x126      1
 UP BOUND     x127      1
 UP BOUND     x128      1
 UP BOUND     x129      1
 UP BOUND     x130      1
 UP BOUND     x131      1
 UP BOUND     x132      1
 UP BOUND     x133      1
 UP BOUND     x134      1
 UP BOUND     x135      1
 UP BOUND     x136      1
 UP BOUND     x137      1
 UP BOUND     x138      1
 UP BOUND     x139      1
 UP BOUND     x140      1
 UP BOUND     x141      1
 UP BOUND     x143      1
 UP BOUND     x144      1
 UP BOUND     x145      1
 UP BOUND     x146      1
 UP BOUND     x148      1
 UP BOUND     x149      1
 UP BOUND     x150      1
ENDATA
